Ni   C    O    H                        
   1.0000000000000000     
     9.9560634791065894    0.0000000000000000    0.0000000000000000
     4.9780317395532903    8.6222038945967903    0.0000000000000000
     0.0000000000000000    0.0000000000000000   36.0968188426423993
   Ni   C    O    H 
    64     5     2     5
Selective dynamics
Direct
  0.0000000000000000  0.0000000000000000  0.4155490839999985   F   F   F
  0.2500000000000000  0.0000000000000000  0.4155490839999985   F   F   F
  0.5000000000000000  0.0000000000000000  0.4155490839999985   F   F   F
  0.7500000000000000  0.0000000000000000  0.4155490839999985   F   F   F
  0.0000000000000000  0.2500000000000000  0.4155490839999985   F   F   F
  0.2500000000000000  0.2500000000000000  0.4155490839999985   F   F   F
  0.5000000000000000  0.2500000000000000  0.4155490839999985   F   F   F
  0.7500000000000000  0.2500000000000000  0.4155490839999985   F   F   F
  0.0000000000397407  0.5000000000000000  0.4155490839999985   F   F   F
  0.2500000000000000  0.5000000000000000  0.4155490839999985   F   F   F
  0.5000000000000000  0.5000000000000000  0.4155490839999985   F   F   F
  0.7500000000000000  0.5000000000000000  0.4155490839999985   F   F   F
  0.0000000000306102  0.7500000000000000  0.4155490839999985   F   F   F
  0.2500000000000000  0.7500000000000000  0.4155490839999985   F   F   F
  0.5000000000000000  0.7500000000000000  0.4155490839999985   F   F   F
  0.7500000000000000  0.7500000000000000  0.4155490839999985   F   F   F
  0.0833333329999988  0.0833333329999988  0.4718496950000031   F   F   F
  0.3333333329999988  0.0833333329999988  0.4718496950000031   F   F   F
  0.5833333329999988  0.0833333329999988  0.4718496950000031   F   F   F
  0.8333333329999988  0.0833333329999988  0.4718496950000031   F   F   F
  0.0833333329999988  0.3333333329999988  0.4718496950000031   F   F   F
  0.3333333329999988  0.3333333329999988  0.4718496950000031   F   F   F
  0.5833333329999988  0.3333333329999988  0.4718496950000031   F   F   F
  0.8333333329999988  0.3333333329999988  0.4718496950000031   F   F   F
  0.0833333329999988  0.5833333329999988  0.4718496950000031   F   F   F
  0.3333333329999988  0.5833333329999988  0.4718496950000031   F   F   F
  0.5833333329999988  0.5833333329999988  0.4718496950000031   F   F   F
  0.8333333329999988  0.5833333329999988  0.4718496950000031   F   F   F
  0.0833333329999988  0.8333333329999988  0.4718496950000031   F   F   F
  0.3333333329999988  0.8333333329999988  0.4718496950000031   F   F   F
  0.5833333329999988  0.8333333329999988  0.4718496950000031   F   F   F
  0.8333333329999988  0.8333333329999988  0.4718496950000031   F   F   F
  0.9166666670000012  0.1666666670000012  0.5281503060000006   F   F   F
  0.1666666670000012  0.1666666670000012  0.5281503060000006   F   F   F
  0.4166666670000012  0.1666666670000012  0.5281503060000006   F   F   F
  0.6666666670000012  0.1666666670000012  0.5281503060000006   F   F   F
  0.9166666670000012  0.4166666670000012  0.5281503060000006   F   F   F
  0.1666666670000012  0.4166666670000012  0.5281503060000006   F   F   F
  0.4166666670000012  0.4166666670000012  0.5281503060000006   F   F   F
  0.6666666670000012  0.4166666670000012  0.5281503060000006   F   F   F
  0.9166666670000012  0.6666666670000012  0.5281503060000006   F   F   F
  0.1666666670000012  0.6666666670000012  0.5281503060000006   F   F   F
  0.4166666670000012  0.6666666670000012  0.5281503060000006   F   F   F
  0.6666666670000012  0.6666666670000012  0.5281503060000006   F   F   F
  0.9166666670000012  0.9166666670000012  0.5281503060000006   F   F   F
  0.1666666670000012  0.9166666670000012  0.5281503060000006   F   F   F
  0.4166666670000012  0.9166666670000012  0.5281503060000006   F   F   F
  0.6666666659999976  0.9166666670000012  0.5281503060000006   F   F   F
  0.0012350989999987  0.9992127559999986  0.5826957089999993   F   F   F
  0.2513413969999974  0.0016145270000010  0.5826997590000005   F   F   F
  0.5005526739999979  0.0006243569999995  0.5831799999999987   F   F   F
  0.7504073180000006  0.9990016830000030  0.5829980600000013   F   F   F
  0.0033496289999988  0.2475726099999989  0.5824377309999988   F   F   F
  0.2514382820000023  0.2482601869999996  0.5840755999999985   F   F   F
  0.5036137290000013  0.2457538749999983  0.5823414409999970   F   F   F
  0.7594023340000007  0.2419631980000005  0.5859464460000012   F   F   F
  0.9999988759999994  0.5004816459999972  0.5833349600000020   F   F   F
  0.2500143850000001  0.4973982229999976  0.5845553790000011   F   F   F
  0.4934565849999970  0.5024705430000012  0.5835106170000017   F   F   F
  0.7498326689999999  0.4986498190000006  0.5858855899999966   F   F   F
  0.9968480719999988  0.7519444690000014  0.5825906540000005   F   F   F
  0.2463161069999984  0.7544161430000003  0.5856724779999993   F   F   F
  0.5021505989999966  0.7538993840000003  0.5825268110000010   F   F   F
  0.7514687769999995  0.7511430280000013  0.5825441890000036   F   F   F
  0.3571422070000025  0.5743091989999982  0.6386073449999969   F   F   F
  0.5229279340000019  0.4922676429999981  0.6395859240000021   F   F   F
  0.6292630769999974  0.5518238699999998  0.6365182389999973   F   F   F
  0.7603804539999999  0.2817191449999967  0.6402660039999972   F   F   F
  0.7828022980000000  0.4162756659999971  0.6385846390000012   F   F   F
  0.2769009679999996  0.7271024920000002  0.6382337969999980   F   F   F
  0.6020364009999994  0.3370809870000002  0.6498088270000011   F   F   F
  0.8379554580000033  0.1778768779999993  0.6560355240000035   F   F   F
  0.8849531919999976  0.4149281179999988  0.6499402820000029   F   F   F
  0.5976533660000030  0.6680631629999993  0.6461465670000024   F   F   F
  0.2991743319999998  0.5082030040000021  0.6467147050000008   F   F   F
  0.1628021920000009  0.4158074480000025  0.6093748239999996   F   F   F

  0.00000000E+00  0.00000000E+00  0.00000000E+00
  0.00000000E+00  0.00000000E+00  0.00000000E+00
  0.00000000E+00  0.00000000E+00  0.00000000E+00
  0.00000000E+00  0.00000000E+00  0.00000000E+00
  0.00000000E+00  0.00000000E+00  0.00000000E+00
  0.00000000E+00  0.00000000E+00  0.00000000E+00
  0.00000000E+00  0.00000000E+00  0.00000000E+00
  0.00000000E+00  0.00000000E+00  0.00000000E+00
  0.00000000E+00  0.00000000E+00  0.00000000E+00
  0.00000000E+00  0.00000000E+00  0.00000000E+00
  0.00000000E+00  0.00000000E+00  0.00000000E+00
  0.00000000E+00  0.00000000E+00  0.00000000E+00
  0.00000000E+00  0.00000000E+00  0.00000000E+00
  0.00000000E+00  0.00000000E+00  0.00000000E+00
  0.00000000E+00  0.00000000E+00  0.00000000E+00
  0.00000000E+00  0.00000000E+00  0.00000000E+00
  0.00000000E+00  0.00000000E+00  0.00000000E+00
  0.00000000E+00  0.00000000E+00  0.00000000E+00
  0.00000000E+00  0.00000000E+00  0.00000000E+00
  0.00000000E+00  0.00000000E+00  0.00000000E+00
  0.00000000E+00  0.00000000E+00  0.00000000E+00
  0.00000000E+00  0.00000000E+00  0.00000000E+00
  0.00000000E+00  0.00000000E+00  0.00000000E+00
  0.00000000E+00  0.00000000E+00  0.00000000E+00
  0.00000000E+00  0.00000000E+00  0.00000000E+00
  0.00000000E+00  0.00000000E+00  0.00000000E+00
  0.00000000E+00  0.00000000E+00  0.00000000E+00
  0.00000000E+00  0.00000000E+00  0.00000000E+00
  0.00000000E+00  0.00000000E+00  0.00000000E+00
  0.00000000E+00  0.00000000E+00  0.00000000E+00
  0.00000000E+00  0.00000000E+00  0.00000000E+00
  0.00000000E+00  0.00000000E+00  0.00000000E+00
  0.00000000E+00  0.00000000E+00  0.00000000E+00
  0.00000000E+00  0.00000000E+00  0.00000000E+00
  0.00000000E+00  0.00000000E+00  0.00000000E+00
  0.00000000E+00  0.00000000E+00  0.00000000E+00
  0.00000000E+00  0.00000000E+00  0.00000000E+00
  0.00000000E+00  0.00000000E+00  0.00000000E+00
  0.00000000E+00  0.00000000E+00  0.00000000E+00
  0.00000000E+00  0.00000000E+00  0.00000000E+00
  0.00000000E+00  0.00000000E+00  0.00000000E+00
  0.00000000E+00  0.00000000E+00  0.00000000E+00
  0.00000000E+00  0.00000000E+00  0.00000000E+00
  0.00000000E+00  0.00000000E+00  0.00000000E+00
  0.00000000E+00  0.00000000E+00  0.00000000E+00
  0.00000000E+00  0.00000000E+00  0.00000000E+00
  0.00000000E+00  0.00000000E+00  0.00000000E+00
  0.00000000E+00  0.00000000E+00  0.00000000E+00
  0.00000000E+00  0.00000000E+00  0.00000000E+00
  0.00000000E+00  0.00000000E+00  0.00000000E+00
  0.00000000E+00  0.00000000E+00  0.00000000E+00
  0.00000000E+00  0.00000000E+00  0.00000000E+00
  0.00000000E+00  0.00000000E+00  0.00000000E+00
  0.00000000E+00  0.00000000E+00  0.00000000E+00
  0.00000000E+00  0.00000000E+00  0.00000000E+00
  0.00000000E+00  0.00000000E+00  0.00000000E+00
  0.00000000E+00  0.00000000E+00  0.00000000E+00
  0.00000000E+00  0.00000000E+00  0.00000000E+00
  0.00000000E+00  0.00000000E+00  0.00000000E+00
  0.00000000E+00  0.00000000E+00  0.00000000E+00
  0.00000000E+00  0.00000000E+00  0.00000000E+00
  0.00000000E+00  0.00000000E+00  0.00000000E+00
  0.00000000E+00  0.00000000E+00  0.00000000E+00
  0.00000000E+00  0.00000000E+00  0.00000000E+00
  0.00000000E+00  0.00000000E+00  0.00000000E+00
  0.00000000E+00  0.00000000E+00  0.00000000E+00
  0.00000000E+00  0.00000000E+00  0.00000000E+00
  0.00000000E+00  0.00000000E+00  0.00000000E+00
  0.00000000E+00  0.00000000E+00  0.00000000E+00
  0.00000000E+00  0.00000000E+00  0.00000000E+00
  0.00000000E+00  0.00000000E+00  0.00000000E+00
  0.00000000E+00  0.00000000E+00  0.00000000E+00
  0.00000000E+00  0.00000000E+00  0.00000000E+00
  0.00000000E+00  0.00000000E+00  0.00000000E+00
  0.00000000E+00  0.00000000E+00  0.00000000E+00
  0.00000000E+00  0.00000000E+00  0.00000000E+00
