Ni   C    O    H                        
   1.0000000000000000     
     9.9560634791065894    0.0000000000000000    0.0000000000000000
     4.9780317395532903    8.6222038945967903    0.0000000000000000
     0.0000000000000000    0.0000000000000000   36.0968188426423993
   Ni   C    O    H 
    64     5     2     5
Selective dynamics
Direct
  0.0000000000000000  0.0000000000000000  0.4155490019999988   F   F   F
  0.2499999879999990  0.0000000000000000  0.4155490019999988   F   F   F
  0.4999999759999980  0.0000000000000000  0.4155490019999988   F   F   F
  0.7499999639999970  0.0000000000000000  0.4155490019999988   F   F   F
  0.0000000000000000  0.2499999879999990  0.4155490019999988   F   F   F
  0.2499999879999990  0.2499999879999990  0.4155490019999988   F   F   F
  0.4999999759999980  0.2499999879999990  0.4155490019999988   F   F   F
  0.7499999639999970  0.2499999879999990  0.4155490019999988   F   F   F
  0.0000000000000000  0.4999999759999980  0.4155490019999988   F   F   F
  0.2499999879999990  0.4999999759999980  0.4155490019999988   F   F   F
  0.4999999759999980  0.4999999759999980  0.4155490019999988   F   F   F
  0.7499999639999970  0.4999999759999980  0.4155490019999988   F   F   F
  0.0000000000000000  0.7499999639999970  0.4155490019999988   F   F   F
  0.2499999879999990  0.7499999639999970  0.4155490019999988   F   F   F
  0.4999999759999980  0.7499999639999970  0.4155490019999988   F   F   F
  0.7499999639999970  0.7499999639999970  0.4155490019999988   F   F   F
  0.0833329960000029  0.0833329960000029  0.4718500019999965   F   F   F
  0.3333329840000019  0.0833329960000029  0.4718500019999965   F   F   F
  0.5833329720000009  0.0833329960000029  0.4718500019999965   F   F   F
  0.8333329599999999  0.0833329960000029  0.4718500019999965   F   F   F
  0.0833329960000029  0.3333329840000019  0.4718500019999965   F   F   F
  0.3333329840000019  0.3333329840000019  0.4718500019999965   F   F   F
  0.5833329720000009  0.3333329840000019  0.4718500019999965   F   F   F
  0.8333329599999999  0.3333329840000019  0.4718500019999965   F   F   F
  0.0833329960000029  0.5833329720000009  0.4718500019999965   F   F   F
  0.3333329840000019  0.5833329720000009  0.4718500019999965   F   F   F
  0.5833329720000009  0.5833329720000009  0.4718500019999965   F   F   F
  0.8333329599999999  0.5833329720000009  0.4718500019999965   F   F   F
  0.0833329960000029  0.8333329599999999  0.4718500019999965   F   F   F
  0.3333329840000019  0.8333329599999999  0.4718500019999965   F   F   F
  0.5833329720000009  0.8333329599999999  0.4718500019999965   F   F   F
  0.8333329599999999  0.8333329599999999  0.4718500019999965   F   F   F
  0.9166670039999971  0.1666669920000032  0.5281500019999967   F   F   F
  0.1666669920000032  0.1666669920000032  0.5281500019999967   F   F   F
  0.4166669800000022  0.1666669920000032  0.5281500019999967   F   F   F
  0.6666669680000012  0.1666669920000032  0.5281500019999967   F   F   F
  0.9166670039999971  0.4166669800000022  0.5281500019999967   F   F   F
  0.1666669920000032  0.4166669800000022  0.5281500019999967   F   F   F
  0.4166669800000022  0.4166669800000022  0.5281500019999967   F   F   F
  0.6666669680000012  0.4166669800000022  0.5281500019999967   F   F   F
  0.9166670039999971  0.6666669680000012  0.5281500019999967   F   F   F
  0.1666669920000032  0.6666669680000012  0.5281500019999967   F   F   F
  0.4166669800000022  0.6666669680000012  0.5281500019999967   F   F   F
  0.6666669680000012  0.6666669680000012  0.5281500019999967   F   F   F
  0.9166670039999971  0.9166669560000003  0.5281500019999967   F   F   F
  0.1666669920000032  0.9166669560000003  0.5281500019999967   F   F   F
  0.4166669800000022  0.9166669560000003  0.5281500019999967   F   F   F
  0.6666669680000012  0.9166669560000003  0.5281500019999967   F   F   F
  0.9978950590000011  0.0044605699999991  0.5827352230000002   F   F   F
  0.2502998849999969  0.0010976840000012  0.5829035739999995   F   F   F
  0.5003753539999991  0.0002804619999992  0.5832383790000009   F   F   F
  0.7490116580000006  0.0005458730000001  0.5833068020000027   F   F   F
  0.0006188520000023  0.2495468649999992  0.5834481340000011   F   F   F
  0.2510130559999979  0.2481125070000019  0.5831818349999978   F   F   F
  0.5015942969999969  0.2472582019999976  0.5831629549999988   F   F   F
  0.7514180869999976  0.2482971640000002  0.5832202499999966   F   F   F
  0.9981562210000021  0.4976201180000004  0.5827340140000032   F   F   F
  0.2529713890000025  0.4941413569999966  0.5848465340000004   F   F   F
  0.5052304319999976  0.4949858120000030  0.5820994210000023   F   F   F
  0.7507962910000003  0.4988267590000035  0.5833547350000003   F   F   F
  0.9960403079999978  0.7524166500000007  0.5852498790000027   F   F   F
  0.2503111309999966  0.7526309459999965  0.5835482199999973   F   F   F
  0.5021118709999968  0.7503095960000010  0.5842939899999990   F   F   F
  0.7503036359999982  0.7506807449999968  0.5827229450000004   F   F   F
  0.2083926840000032  0.6708048509999998  0.6607262420000026   F   F   F
  0.3541094420000022  0.6750441769999966  0.6638903189999965   F   F   F
  0.3870209250000016  0.7938846170000033  0.6627263330000019   F   F   F
  0.6098963949999998  0.5659834880000005  0.6591346869999981   F   F   F
  0.5520050969999986  0.7240166260000009  0.6596115560000015   F   F   F
  0.1732868730000021  0.6636565279999971  0.6217500340000015   F   F   F
  0.4913239449999978  0.5344399330000016  0.6620312089999985   F   F   F
  0.7263905519999980  0.4662836910000010  0.6587423340000029   F   F   F
  0.6198599769999973  0.7820547419999997  0.6590279509999988   F   F   F
  0.3028695929999969  0.9172726620000020  0.6636056110000013   F   F   F
  0.1117021069999993  0.7771904660000004  0.6724671420000021   F   F   F
  0.2167977960000016  0.5686417069999976  0.6746941219999982   F   F   F

  0.00000000E+00  0.00000000E+00  0.00000000E+00
  0.00000000E+00  0.00000000E+00  0.00000000E+00
  0.00000000E+00  0.00000000E+00  0.00000000E+00
  0.00000000E+00  0.00000000E+00  0.00000000E+00
  0.00000000E+00  0.00000000E+00  0.00000000E+00
  0.00000000E+00  0.00000000E+00  0.00000000E+00
  0.00000000E+00  0.00000000E+00  0.00000000E+00
  0.00000000E+00  0.00000000E+00  0.00000000E+00
  0.00000000E+00  0.00000000E+00  0.00000000E+00
  0.00000000E+00  0.00000000E+00  0.00000000E+00
  0.00000000E+00  0.00000000E+00  0.00000000E+00
  0.00000000E+00  0.00000000E+00  0.00000000E+00
  0.00000000E+00  0.00000000E+00  0.00000000E+00
  0.00000000E+00  0.00000000E+00  0.00000000E+00
  0.00000000E+00  0.00000000E+00  0.00000000E+00
  0.00000000E+00  0.00000000E+00  0.00000000E+00
  0.00000000E+00  0.00000000E+00  0.00000000E+00
  0.00000000E+00  0.00000000E+00  0.00000000E+00
  0.00000000E+00  0.00000000E+00  0.00000000E+00
  0.00000000E+00  0.00000000E+00  0.00000000E+00
  0.00000000E+00  0.00000000E+00  0.00000000E+00
  0.00000000E+00  0.00000000E+00  0.00000000E+00
  0.00000000E+00  0.00000000E+00  0.00000000E+00
  0.00000000E+00  0.00000000E+00  0.00000000E+00
  0.00000000E+00  0.00000000E+00  0.00000000E+00
  0.00000000E+00  0.00000000E+00  0.00000000E+00
  0.00000000E+00  0.00000000E+00  0.00000000E+00
  0.00000000E+00  0.00000000E+00  0.00000000E+00
  0.00000000E+00  0.00000000E+00  0.00000000E+00
  0.00000000E+00  0.00000000E+00  0.00000000E+00
  0.00000000E+00  0.00000000E+00  0.00000000E+00
  0.00000000E+00  0.00000000E+00  0.00000000E+00
  0.00000000E+00  0.00000000E+00  0.00000000E+00
  0.00000000E+00  0.00000000E+00  0.00000000E+00
  0.00000000E+00  0.00000000E+00  0.00000000E+00
  0.00000000E+00  0.00000000E+00  0.00000000E+00
  0.00000000E+00  0.00000000E+00  0.00000000E+00
  0.00000000E+00  0.00000000E+00  0.00000000E+00
  0.00000000E+00  0.00000000E+00  0.00000000E+00
  0.00000000E+00  0.00000000E+00  0.00000000E+00
  0.00000000E+00  0.00000000E+00  0.00000000E+00
  0.00000000E+00  0.00000000E+00  0.00000000E+00
  0.00000000E+00  0.00000000E+00  0.00000000E+00
  0.00000000E+00  0.00000000E+00  0.00000000E+00
  0.00000000E+00  0.00000000E+00  0.00000000E+00
  0.00000000E+00  0.00000000E+00  0.00000000E+00
  0.00000000E+00  0.00000000E+00  0.00000000E+00
  0.00000000E+00  0.00000000E+00  0.00000000E+00
  0.00000000E+00  0.00000000E+00  0.00000000E+00
  0.00000000E+00  0.00000000E+00  0.00000000E+00
  0.00000000E+00  0.00000000E+00  0.00000000E+00
  0.00000000E+00  0.00000000E+00  0.00000000E+00
  0.00000000E+00  0.00000000E+00  0.00000000E+00
  0.00000000E+00  0.00000000E+00  0.00000000E+00
  0.00000000E+00  0.00000000E+00  0.00000000E+00
  0.00000000E+00  0.00000000E+00  0.00000000E+00
  0.00000000E+00  0.00000000E+00  0.00000000E+00
  0.00000000E+00  0.00000000E+00  0.00000000E+00
  0.00000000E+00  0.00000000E+00  0.00000000E+00
  0.00000000E+00  0.00000000E+00  0.00000000E+00
  0.00000000E+00  0.00000000E+00  0.00000000E+00
  0.00000000E+00  0.00000000E+00  0.00000000E+00
  0.00000000E+00  0.00000000E+00  0.00000000E+00
  0.00000000E+00  0.00000000E+00  0.00000000E+00
  0.00000000E+00  0.00000000E+00  0.00000000E+00
  0.00000000E+00  0.00000000E+00  0.00000000E+00
  0.00000000E+00  0.00000000E+00  0.00000000E+00
  0.00000000E+00  0.00000000E+00  0.00000000E+00
  0.00000000E+00  0.00000000E+00  0.00000000E+00
  0.00000000E+00  0.00000000E+00  0.00000000E+00
  0.00000000E+00  0.00000000E+00  0.00000000E+00
  0.00000000E+00  0.00000000E+00  0.00000000E+00
  0.00000000E+00  0.00000000E+00  0.00000000E+00
  0.00000000E+00  0.00000000E+00  0.00000000E+00
  0.00000000E+00  0.00000000E+00  0.00000000E+00
  0.00000000E+00  0.00000000E+00  0.00000000E+00
